11
2147483647 80 26 63 15 15 84 58 97 85 12 
80 2147483647 41 45 15 55 43 65 31 50 75 
26 41 2147483647 65 75 24 63 98 36 97 59 
63 45 65 2147483647 5 63 24 88 55 37 13 
15 15 75 5 2147483647 9 52 72 90 85 61 
15 55 24 63 9 2147483647 55 67 6 59 37 
84 43 63 24 52 55 2147483647 31 78 9 48 
58 65 98 88 72 67 31 2147483647 38 23 7 
97 31 36 55 90 6 78 38 2147483647 35 21 
85 50 97 37 85 59 9 23 35 2147483647 92 
12 75 59 13 61 37 48 7 21 92 2147483647 
